c SAT instance in DIMACS CNF input format.
p cnf 15 30
6 -10 13 0
9 -13 -14 0
8 -12 -14 0
4 -5 6 0
3 -4 9 0
2 -8 -9 0
-4 -8 10 0
1 6 13 0
-7 8 -10 0
6 9 -14 0
1 2 -10 0
6 -8 12 0
-4 10 -14 0
-3 10 -11 0
-1 6 -7 0
-6 -11 14 0
4 -9 13 0
5 -6 -7 0
6 13 -15 0
10 -12 15 0
-3 10 11 0
-2 -6 -7 0
11 -12 13 0
-4 -12 -14 0
-5 -6 -14 0
-2 -5 15 0
-2 -7 14 0
7 8 -14 0
-2 -5 12 0
-1 3 -10 0
11 8 30 1 36 13 25 12 11 41 34 15 43 37 14 